tsp_instances/TSP20/instance64.tsp
NODE_COORD_SECTION
0 56 51
1 28 28
2 106 70
3 62 178
4 187 133
5 112 168
6 48 26
7 191 144
8 36 142
9 45 23
10 5 30
11 164 59
12 17 114
13 136 130
14 4 158
15 76 146
16 181 131
17 128 49
18 42 59
19 38 15
