tsp_instances/TSP20/instance64.opt.tour
TOUR_SECTION
1
3
18
12
17
5
8
14
6
16
4
9
15
13
19
11
2
20
10
7
-1